num_vertices = 175;
num_edges = 430;
edges = {
    <1, 2>,
    <1, 6>,
    <1, 26>,
    <2, 3>,
    <2, 7>,
    <2, 27>,
    <3, 4>,
    <3, 8>,
    <3, 28>,
    <4, 5>,
    <4, 9>,
    <4, 29>,
    <5, 10>,
    <5, 30>,
    <6, 7>,
    <6, 11>,
    <6, 31>,
    <7, 8>,
    <7, 12>,
    <7, 32>,
    <8, 9>,
    <8, 13>,
    <8, 33>,
    <9, 10>,
    <9, 14>,
    <9, 34>,
    <10, 15>,
    <10, 35>,
    <11, 12>,
    <11, 16>,
    <11, 36>,
    <12, 13>,
    <12, 17>,
    <12, 37>,
    <13, 14>,
    <13, 18>,
    <13, 38>,
    <14, 15>,
    <14, 19>,
    <14, 39>,
    <15, 20>,
    <15, 40>,
    <16, 17>,
    <16, 21>,
    <16, 41>,
    <17, 18>,
    <17, 22>,
    <17, 42>,
    <18, 19>,
    <18, 23>,
    <18, 43>,
    <19, 20>,
    <19, 24>,
    <19, 44>,
    <20, 25>,
    <20, 45>,
    <21, 22>,
    <21, 46>,
    <22, 23>,
    <22, 47>,
    <23, 24>,
    <23, 48>,
    <24, 25>,
    <24, 49>,
    <25, 50>,
    <26, 27>,
    <26, 31>,
    <26, 51>,
    <27, 28>,
    <27, 32>,
    <27, 52>,
    <28, 29>,
    <28, 33>,
    <28, 53>,
    <29, 30>,
    <29, 34>,
    <29, 54>,
    <30, 35>,
    <30, 55>,
    <31, 32>,
    <31, 36>,
    <31, 56>,
    <32, 33>,
    <32, 37>,
    <32, 57>,
    <33, 34>,
    <33, 38>,
    <33, 58>,
    <34, 35>,
    <34, 39>,
    <34, 59>,
    <35, 40>,
    <35, 60>,
    <36, 37>,
    <36, 41>,
    <36, 61>,
    <37, 38>,
    <37, 42>,
    <37, 62>,
    <38, 39>,
    <38, 43>,
    <38, 63>,
    <39, 40>,
    <39, 44>,
    <39, 64>,
    <40, 45>,
    <40, 65>,
    <41, 42>,
    <41, 46>,
    <41, 66>,
    <42, 43>,
    <42, 47>,
    <42, 67>,
    <43, 44>,
    <43, 48>,
    <43, 68>,
    <44, 45>,
    <44, 49>,
    <44, 69>,
    <45, 50>,
    <45, 70>,
    <46, 47>,
    <46, 71>,
    <47, 48>,
    <47, 72>,
    <48, 49>,
    <48, 73>,
    <49, 50>,
    <49, 74>,
    <50, 75>,
    <51, 52>,
    <51, 56>,
    <51, 76>,
    <52, 53>,
    <52, 57>,
    <52, 77>,
    <53, 54>,
    <53, 58>,
    <53, 78>,
    <54, 55>,
    <54, 59>,
    <54, 79>,
    <55, 60>,
    <55, 80>,
    <56, 57>,
    <56, 61>,
    <56, 81>,
    <57, 58>,
    <57, 62>,
    <57, 82>,
    <58, 59>,
    <58, 63>,
    <58, 83>,
    <59, 60>,
    <59, 64>,
    <59, 84>,
    <60, 65>,
    <60, 85>,
    <61, 62>,
    <61, 66>,
    <61, 86>,
    <62, 63>,
    <62, 67>,
    <62, 87>,
    <63, 64>,
    <63, 68>,
    <63, 88>,
    <64, 65>,
    <64, 69>,
    <64, 89>,
    <65, 70>,
    <65, 90>,
    <66, 67>,
    <66, 71>,
    <66, 91>,
    <67, 68>,
    <67, 72>,
    <67, 92>,
    <68, 69>,
    <68, 73>,
    <68, 93>,
    <69, 70>,
    <69, 74>,
    <69, 94>,
    <70, 75>,
    <70, 95>,
    <71, 72>,
    <71, 96>,
    <72, 73>,
    <72, 97>,
    <73, 74>,
    <73, 98>,
    <74, 75>,
    <74, 99>,
    <75, 100>,
    <76, 77>,
    <76, 81>,
    <76, 101>,
    <77, 78>,
    <77, 82>,
    <77, 102>,
    <78, 79>,
    <78, 83>,
    <78, 103>,
    <79, 80>,
    <79, 84>,
    <79, 104>,
    <80, 85>,
    <80, 105>,
    <81, 82>,
    <81, 86>,
    <81, 106>,
    <82, 83>,
    <82, 87>,
    <82, 107>,
    <83, 84>,
    <83, 88>,
    <83, 108>,
    <84, 85>,
    <84, 89>,
    <84, 109>,
    <85, 90>,
    <85, 110>,
    <86, 87>,
    <86, 91>,
    <86, 111>,
    <87, 88>,
    <87, 92>,
    <87, 112>,
    <88, 89>,
    <88, 93>,
    <88, 113>,
    <89, 90>,
    <89, 94>,
    <89, 114>,
    <90, 95>,
    <90, 115>,
    <91, 92>,
    <91, 96>,
    <91, 116>,
    <92, 93>,
    <92, 97>,
    <92, 117>,
    <93, 94>,
    <93, 98>,
    <93, 118>,
    <94, 95>,
    <94, 99>,
    <94, 119>,
    <95, 100>,
    <95, 120>,
    <96, 97>,
    <96, 121>,
    <97, 98>,
    <97, 122>,
    <98, 99>,
    <98, 123>,
    <99, 100>,
    <99, 124>,
    <100, 125>,
    <101, 102>,
    <101, 106>,
    <101, 126>,
    <102, 103>,
    <102, 107>,
    <102, 127>,
    <103, 104>,
    <103, 108>,
    <103, 128>,
    <104, 105>,
    <104, 109>,
    <104, 129>,
    <105, 110>,
    <105, 130>,
    <106, 107>,
    <106, 111>,
    <106, 131>,
    <107, 108>,
    <107, 112>,
    <107, 132>,
    <108, 109>,
    <108, 113>,
    <108, 133>,
    <109, 110>,
    <109, 114>,
    <109, 134>,
    <110, 115>,
    <110, 135>,
    <111, 112>,
    <111, 116>,
    <111, 136>,
    <112, 113>,
    <112, 117>,
    <112, 137>,
    <113, 114>,
    <113, 118>,
    <113, 138>,
    <114, 115>,
    <114, 119>,
    <114, 139>,
    <115, 120>,
    <115, 140>,
    <116, 117>,
    <116, 121>,
    <116, 141>,
    <117, 118>,
    <117, 122>,
    <117, 142>,
    <118, 119>,
    <118, 123>,
    <118, 143>,
    <119, 120>,
    <119, 124>,
    <119, 144>,
    <120, 125>,
    <120, 145>,
    <121, 122>,
    <121, 146>,
    <122, 123>,
    <122, 147>,
    <123, 124>,
    <123, 148>,
    <124, 125>,
    <124, 149>,
    <125, 150>,
    <126, 127>,
    <126, 131>,
    <126, 151>,
    <127, 128>,
    <127, 132>,
    <127, 152>,
    <128, 129>,
    <128, 133>,
    <128, 153>,
    <129, 130>,
    <129, 134>,
    <129, 154>,
    <130, 135>,
    <130, 155>,
    <131, 132>,
    <131, 136>,
    <131, 156>,
    <132, 133>,
    <132, 137>,
    <132, 157>,
    <133, 134>,
    <133, 138>,
    <133, 158>,
    <134, 135>,
    <134, 139>,
    <134, 159>,
    <135, 140>,
    <135, 160>,
    <136, 137>,
    <136, 141>,
    <136, 161>,
    <137, 138>,
    <137, 142>,
    <137, 162>,
    <138, 139>,
    <138, 143>,
    <138, 163>,
    <139, 140>,
    <139, 144>,
    <139, 164>,
    <140, 145>,
    <140, 165>,
    <141, 142>,
    <141, 146>,
    <141, 166>,
    <142, 143>,
    <142, 147>,
    <142, 167>,
    <143, 144>,
    <143, 148>,
    <143, 168>,
    <144, 145>,
    <144, 149>,
    <144, 169>,
    <145, 150>,
    <145, 170>,
    <146, 147>,
    <146, 171>,
    <147, 148>,
    <147, 172>,
    <148, 149>,
    <148, 173>,
    <149, 150>,
    <149, 174>,
    <150, 175>,
    <151, 152>,
    <151, 156>,
    <152, 153>,
    <152, 157>,
    <153, 154>,
    <153, 158>,
    <154, 155>,
    <154, 159>,
    <155, 160>,
    <156, 157>,
    <156, 161>,
    <157, 158>,
    <157, 162>,
    <158, 159>,
    <158, 163>,
    <159, 160>,
    <159, 164>,
    <160, 165>,
    <161, 162>,
    <161, 166>,
    <162, 163>,
    <162, 167>,
    <163, 164>,
    <163, 168>,
    <164, 165>,
    <164, 169>,
    <165, 170>,
    <166, 167>,
    <166, 171>,
    <167, 168>,
    <167, 172>,
    <168, 169>,
    <168, 173>,
    <169, 170>,
    <169, 174>,
    <170, 175>,
    <171, 172>,
    <172, 173>,
    <173, 174>,
    <174, 175>
};
